c nIsolatedPIs 0
c maxPI 32
p cnf 228 589
c gate 33 -14 -30 0
-14 -33 0
-30 -33 0
14 30 33 0
c gate 34 14 30 0
14 -34 0
30 -34 0
-14 -30 34 0
c gate 35 -33 -34 0
-33 -35 0
-34 -35 0
33 34 35 0
c gate 36 13 29 0
13 -36 0
29 -36 0
-13 -29 36 0
c gate 37 12 28 0
12 -37 0
28 -37 0
-12 -28 37 0
c gate 38 -36 -37 0
-36 -38 0
-37 -38 0
36 37 38 0
c gate 39 35 38 0
35 -39 0
38 -39 0
-35 -38 39 0
c gate 40 -35 -38 0
-35 -40 0
-38 -40 0
35 38 40 0
c gate 41 -39 -40 0
-39 -41 0
-40 -41 0
39 40 41 0
c gate 42 -13 -29 0
-13 -42 0
-29 -42 0
13 29 42 0
c gate 43 11 27 0
11 -43 0
27 -43 0
-11 -27 43 0
c gate 44 -10 -26 0
-10 -44 0
-26 -44 0
10 26 44 0
c gate 45 10 26 0
10 -45 0
26 -45 0
-10 -26 45 0
c gate 46 9 25 0
9 -46 0
25 -46 0
-9 -25 46 0
c gate 47 -45 -46 0
-45 -47 0
-46 -47 0
45 46 47 0
c gate 48 -8 -24 0
-8 -48 0
-24 -48 0
8 24 48 0
c gate 49 8 24 0
8 -49 0
24 -49 0
-8 -24 49 0
c gate 50 -48 -49 0
-48 -50 0
-49 -50 0
48 49 50 0
c gate 51 -7 23 0
-7 -51 0
23 -51 0
7 -23 51 0
c gate 52 7 -23 0
7 -52 0
-23 -52 0
-7 23 52 0
c gate 53 -51 -52 0
-51 -53 0
-52 -53 0
51 52 53 0
c gate 54 -6 -22 0
-6 -54 0
-22 -54 0
6 22 54 0
c gate 55 -2 -18 0
-2 -55 0
-18 -55 0
2 18 55 0
c gate 56 3 19 0
3 -56 0
19 -56 0
-3 -19 56 0
c gate 57 55 -56 0
55 -57 0
-56 -57 0
-55 56 57 0
c gate 58 1 17 0
1 -58 0
17 -58 0
-1 -17 58 0
c gate 59 2 18 0
2 -59 0
18 -59 0
-2 -18 59 0
c gate 60 -58 -59 0
-58 -60 0
-59 -60 0
58 59 60 0
c gate 61 -3 -19 0
-3 -61 0
-19 -61 0
3 19 61 0
c gate 62 -60 -61 0
-60 -62 0
-61 -62 0
60 61 62 0
c gate 63 -56 -62 0
-56 -63 0
-62 -63 0
56 62 63 0
c gate 64 -57 -63 0
-57 -64 0
-63 -64 0
57 63 64 0
c gate 65 4 64 0
4 -65 0
64 -65 0
-4 -64 65 0
c gate 66 -20 -65 0
-20 -66 0
-65 -66 0
20 65 66 0
c gate 67 -5 -21 0
-5 -67 0
-21 -67 0
5 21 67 0
c gate 68 -4 -64 0
-4 -68 0
-64 -68 0
4 64 68 0
c gate 69 -67 -68 0
-67 -69 0
-68 -69 0
67 68 69 0
c gate 70 -66 69 0
-66 -70 0
69 -70 0
66 -69 70 0
c gate 71 6 22 0
6 -71 0
22 -71 0
-6 -22 71 0
c gate 72 -54 -71 0
-54 -72 0
-71 -72 0
54 71 72 0
c gate 73 5 21 0
5 -73 0
21 -73 0
-5 -21 73 0
c gate 74 72 -73 0
72 -74 0
-73 -74 0
-72 73 74 0
c gate 75 -70 74 0
-70 -75 0
74 -75 0
70 -74 75 0
c gate 76 -54 -75 0
-54 -76 0
-75 -76 0
54 75 76 0
c gate 77 -53 -76 0
-53 -77 0
-76 -77 0
53 76 77 0
c gate 78 50 77 0
50 -78 0
77 -78 0
-50 -77 78 0
c gate 79 -7 -23 0
-7 -79 0
-23 -79 0
7 23 79 0
c gate 80 -49 79 0
-49 -80 0
79 -80 0
49 -79 80 0
c gate 81 -9 -25 0
-9 -81 0
-25 -81 0
9 25 81 0
c gate 82 -48 -81 0
-48 -82 0
-81 -82 0
48 81 82 0
c gate 83 -80 82 0
-80 -83 0
82 -83 0
80 -82 83 0
c gate 84 -78 83 0
-78 -84 0
83 -84 0
78 -83 84 0
c gate 85 47 -84 0
47 -85 0
-84 -85 0
-47 84 85 0
c gate 86 -44 -85 0
-44 -86 0
-85 -86 0
44 85 86 0
c gate 87 -43 -86 0
-43 -87 0
-86 -87 0
43 86 87 0
c gate 88 -11 -27 0
-11 -88 0
-27 -88 0
11 27 88 0
c gate 89 -12 -28 0
-12 -89 0
-28 -89 0
12 28 89 0
c gate 90 -37 -89 0
-37 -90 0
-89 -90 0
37 89 90 0
c gate 91 -88 90 0
-88 -91 0
90 -91 0
88 -90 91 0
c gate 92 -87 91 0
-87 -92 0
91 -92 0
87 -91 92 0
c gate 93 38 -92 0
38 -93 0
-92 -93 0
-38 92 93 0
c gate 94 -42 -93 0
-42 -94 0
-93 -94 0
42 93 94 0
c gate 95 35 -94 0
35 -95 0
-94 -95 0
-35 94 95 0
c gate 96 -35 94 0
-35 -96 0
94 -96 0
35 -94 96 0
c gate 97 -95 -96 0
-95 -97 0
-96 -97 0
95 96 97 0
c gate 98 -41 97 0
-41 -98 0
97 -98 0
41 -97 98 0
c gate 99 41 -97 0
41 -99 0
-97 -99 0
-41 97 99 0
c gate 100 -98 -99 0
-98 -100 0
-99 -100 0
98 99 100 0
c gate 101 47 -83 0
47 -101 0
-83 -101 0
-47 83 101 0
c gate 102 -44 91 0
-44 -102 0
91 -102 0
44 -91 102 0
c gate 103 -101 102 0
-101 -103 0
102 -103 0
101 -102 103 0
c gate 104 87 103 0
87 -104 0
103 -104 0
-87 -103 104 0
c gate 105 100 104 0
100 -105 0
104 -105 0
-100 -104 105 0
c gate 106 16 32 0
16 -106 0
32 -106 0
-16 -32 106 0
c gate 107 -16 -32 0
-16 -107 0
-32 -107 0
16 32 107 0
c gate 108 -106 -107 0
-106 -108 0
-107 -108 0
106 107 108 0
c gate 109 -15 -31 0
-15 -109 0
-31 -109 0
15 31 109 0
c gate 110 15 31 0
15 -110 0
31 -110 0
-15 -31 110 0
c gate 111 -109 -110 0
-109 -111 0
-110 -111 0
109 110 111 0
c gate 112 -33 -95 0
-33 -112 0
-95 -112 0
33 95 112 0
c gate 113 111 -112 0
111 -113 0
-112 -113 0
-111 112 113 0
c gate 114 -109 -113 0
-109 -114 0
-113 -114 0
109 113 114 0
c gate 115 108 -114 0
108 -115 0
-114 -115 0
-108 114 115 0
c gate 116 -108 114 0
-108 -116 0
114 -116 0
108 -114 116 0
c gate 117 -115 -116 0
-115 -117 0
-116 -117 0
115 116 117 0
c gate 118 -33 -39 0
-33 -118 0
-39 -118 0
33 39 118 0
c gate 119 111 118 0
111 -119 0
118 -119 0
-111 -118 119 0
c gate 120 -110 -119 0
-110 -120 0
-119 -120 0
110 119 120 0
c gate 121 108 120 0
108 -121 0
120 -121 0
-108 -120 121 0
c gate 122 -108 -120 0
-108 -122 0
-120 -122 0
108 120 122 0
c gate 123 -121 -122 0
-121 -123 0
-122 -123 0
121 122 123 0
c gate 124 -117 123 0
-117 -124 0
123 -124 0
117 -123 124 0
c gate 125 117 -123 0
117 -125 0
-123 -125 0
-117 123 125 0
c gate 126 -111 -118 0
-111 -126 0
-118 -126 0
111 118 126 0
c gate 127 -119 -126 0
-119 -127 0
-126 -127 0
119 126 127 0
c gate 128 -111 112 0
-111 -128 0
112 -128 0
111 -112 128 0
c gate 129 -113 -128 0
-113 -129 0
-128 -129 0
113 128 129 0
c gate 130 -127 -129 0
-127 -130 0
-129 -130 0
127 129 130 0
c gate 131 127 129 0
127 -131 0
129 -131 0
-127 -129 131 0
c gate 132 -36 -42 0
-36 -132 0
-42 -132 0
36 42 132 0
c gate 133 92 -132 0
92 -133 0
-132 -133 0
-92 132 133 0
c gate 134 -99 -133 0
-99 -134 0
-133 -134 0
99 133 134 0
c gate 135 -131 -134 0
-131 -135 0
-134 -135 0
131 134 135 0
c gate 136 -130 -135 0
-130 -136 0
-135 -136 0
130 135 136 0
c gate 137 -125 -136 0
-125 -137 0
-136 -137 0
125 136 137 0
c gate 138 -124 -137 0
-124 -138 0
-137 -138 0
124 137 138 0
c gate 139 -105 138 0
-105 -139 0
138 -139 0
105 -138 139 0
c gate 140 -78 -92 0
-78 -140 0
-92 -140 0
78 92 140 0
c gate 141 100 140 0
100 -141 0
140 -141 0
-100 -140 141 0
c gate 142 -139 -141 0
-139 -142 0
-141 -142 0
139 141 142 0
c gate 143 10 -26 0
10 -143 0
-26 -143 0
-10 26 143 0
c gate 144 9 -25 0
9 -144 0
-25 -144 0
-9 25 144 0
c gate 145 -9 25 0
-9 -145 0
25 -145 0
9 -25 145 0
c gate 146 8 -24 0
8 -146 0
-24 -146 0
-8 24 146 0
c gate 147 6 -22 0
6 -147 0
-22 -147 0
-6 22 147 0
c gate 148 53 -147 0
53 -148 0
-147 -148 0
-53 147 148 0
c gate 149 -2 18 0
-2 -149 0
18 -149 0
2 -18 149 0
c gate 150 -1 17 0
-1 -150 0
17 -150 0
1 -17 150 0
c gate 151 -149 -150 0
-149 -151 0
-150 -151 0
149 150 151 0
c gate 152 2 -18 0
2 -152 0
-18 -152 0
-2 18 152 0
c gate 153 3 -19 0
3 -153 0
-19 -153 0
-3 19 153 0
c gate 154 -152 -153 0
-152 -154 0
-153 -154 0
152 153 154 0
c gate 155 -151 154 0
-151 -155 0
154 -155 0
151 -154 155 0
c gate 156 -3 19 0
-3 -156 0
19 -156 0
3 -19 156 0
c gate 157 -4 20 0
-4 -157 0
20 -157 0
4 -20 157 0
c gate 158 -156 -157 0
-156 -158 0
-157 -158 0
156 157 158 0
c gate 159 -155 158 0
-155 -159 0
158 -159 0
155 -158 159 0
c gate 160 4 -20 0
4 -160 0
-20 -160 0
-4 20 160 0
c gate 161 5 -21 0
5 -161 0
-21 -161 0
-5 21 161 0
c gate 162 -160 -161 0
-160 -162 0
-161 -162 0
160 161 162 0
c gate 163 -159 162 0
-159 -163 0
162 -163 0
159 -162 163 0
c gate 164 -5 21 0
-5 -164 0
21 -164 0
5 -21 164 0
c gate 165 -72 -164 0
-72 -165 0
-164 -165 0
72 164 165 0
c gate 166 -163 165 0
-163 -166 0
165 -166 0
163 -165 166 0
c gate 167 148 -166 0
148 -167 0
-166 -167 0
-148 166 167 0
c gate 168 -51 -167 0
-51 -168 0
-167 -168 0
51 167 168 0
c gate 169 -50 168 0
-50 -169 0
168 -169 0
50 -168 169 0
c gate 170 -146 -169 0
-146 -170 0
-169 -170 0
146 169 170 0
c gate 171 -145 -170 0
-145 -171 0
-170 -171 0
145 170 171 0
c gate 172 -144 -171 0
-144 -172 0
-171 -172 0
144 171 172 0
c gate 173 -44 -45 0
-44 -173 0
-45 -173 0
44 45 173 0
c gate 174 -172 -173 0
-172 -174 0
-173 -174 0
172 173 174 0
c gate 175 -143 -174 0
-143 -175 0
-174 -175 0
143 174 175 0
c gate 176 -43 -88 0
-43 -176 0
-88 -176 0
43 88 176 0
c gate 177 175 -176 0
175 -177 0
-176 -177 0
-175 176 177 0
c gate 178 -35 -108 0
-35 -178 0
-108 -178 0
35 108 178 0
c gate 179 -111 -132 0
-111 -179 0
-132 -179 0
111 132 179 0
c gate 180 -90 179 0
-90 -180 0
179 -180 0
90 -179 180 0
c gate 181 178 180 0
178 -181 0
180 -181 0
-178 -180 181 0
c gate 182 177 181 0
177 -182 0
181 -182 0
-177 -181 182 0
c gate 183 -175 176 0
-175 -183 0
176 -183 0
175 -176 183 0
c gate 184 -177 -183 0
-177 -184 0
-183 -184 0
177 183 184 0
c gate 185 -144 -146 0
-144 -185 0
-146 -185 0
144 146 185 0
c gate 186 -173 -185 0
-173 -186 0
-185 -186 0
173 185 186 0
c gate 187 -143 -186 0
-143 -187 0
-186 -187 0
143 186 187 0
c gate 188 176 -187 0
176 -188 0
-187 -188 0
-176 187 188 0
c gate 189 -184 -188 0
-184 -189 0
-188 -189 0
184 188 189 0
c gate 190 173 185 0
173 -190 0
185 -190 0
-173 -185 190 0
c gate 191 -186 -190 0
-186 -191 0
-190 -191 0
186 190 191 0
c gate 192 172 173 0
172 -192 0
173 -192 0
-172 -173 192 0
c gate 193 -174 -192 0
-174 -193 0
-192 -193 0
174 192 193 0
c gate 194 191 -193 0
191 -194 0
-193 -194 0
-191 193 194 0
c gate 195 -191 193 0
-191 -195 0
193 -195 0
191 -193 195 0
c gate 196 114 121 0
114 -196 0
121 -196 0
-114 -121 196 0
c gate 197 -166 -196 0
-166 -197 0
-196 -197 0
166 196 197 0
c gate 198 142 197 0
142 -198 0
197 -198 0
-142 -197 198 0
c gate 199 -53 166 0
-53 -199 0
166 -199 0
53 -166 199 0
c gate 200 -106 -166 0
-106 -200 0
-166 -200 0
106 166 200 0
c gate 201 -121 200 0
-121 -201 0
200 -201 0
121 -200 201 0
c gate 202 115 201 0
115 -202 0
201 -202 0
-115 -201 202 0
c gate 203 -199 -202 0
-199 -203 0
-202 -203 0
199 202 203 0
c gate 204 -198 203 0
-198 -204 0
203 -204 0
198 -203 204 0
c gate 205 50 148 0
50 -205 0
148 -205 0
-50 -148 205 0
c gate 206 168 205 0
168 -206 0
205 -206 0
-168 -205 206 0
c gate 207 204 -206 0
204 -207 0
-206 -207 0
-204 206 207 0
c gate 208 -169 -207 0
-169 -208 0
-207 -208 0
169 207 208 0
c gate 209 -144 -145 0
-144 -209 0
-145 -209 0
144 145 209 0
c gate 210 169 -209 0
169 -210 0
-209 -210 0
-169 209 210 0
c gate 211 -208 -210 0
-208 -211 0
-210 -211 0
208 210 211 0
c gate 212 -195 211 0
-195 -212 0
211 -212 0
195 -211 212 0
c gate 213 -194 -212 0
-194 -213 0
-212 -213 0
194 212 213 0
c gate 214 -189 -213 0
-189 -214 0
-213 -214 0
189 213 214 0
c gate 215 175 188 0
175 -215 0
188 -215 0
-175 -188 215 0
c gate 216 -177 -215 0
-177 -216 0
-215 -216 0
177 215 216 0
c gate 217 -214 216 0
-214 -217 0
216 -217 0
214 -216 217 0
c gate 218 -182 -217 0
-182 -218 0
-217 -218 0
182 217 218 0
c gate 219 -142 218 0
-142 -219 0
218 -219 0
142 -218 219 0
c gate 220 55 58 0
55 -220 0
58 -220 0
-55 -58 220 0
c gate 221 -75 -220 0
-75 -221 0
-220 -221 0
75 220 221 0
c gate 222 -77 221 0
-77 -222 0
221 -222 0
77 -221 222 0
c gate 223 -104 -222 0
-104 -223 0
-222 -223 0
104 222 223 0
c gate 224 -92 -223 0
-92 -224 0
-223 -224 0
92 223 224 0
c gate 225 100 224 0
100 -225 0
224 -225 0
-100 -224 225 0
c gate 226 138 -225 0
138 -226 0
-225 -226 0
-138 225 226 0
c gate 227 -218 -226 0
-218 -227 0
-226 -227 0
218 226 227 0
c gate 228 -219 -227 0
-219 -228 0
-227 -228 0
219 227 228 0
c PO
228 0
